c User generated cnf file
p cnf 14 84
12 -13 13 0 
14 -11 1 0 
3 13 -3 0 
14 -2 11 0 
13 8 -10 0 
9 -9 6 0 
14 -11 9 0 
4 7 -12 0 
7 3 -2 0 
6 -8 1 0 
11 -4 12 0 
11 3 -13 0 
10 -12 13 0 
6 -13 3 0 
13 8 -5 0 
2 -7 3 0 
12 -13 4 0 
1 11 -14 0 
13 8 -8 0 
8 -11 2 0 
14 4 -7 0 
2 1 -1 0 
4 -14 13 0 
12 6 -14 0 
8 -4 5 0 
11 -8 9 0 
9 12 -12 0 
2 -6 10 0 
14 -5 6 0 
2 -11 8 0 
7 7 -7 0 
6 -4 8 0 
6 -8 2 0 
13 14 -10 0 
7 3 -3 0 
13 -14 8 0 
14 -10 5 0 
14 -9 7 0 
13 -7 12 0 
1 3 -3 0 
9 4 -1 0 
2 4 -11 0 
13 10 -6 0 
5 10 -3 0 
8 -6 9 0 
11 6 -7 0 
8 5 -14 0 
1 7 -13 0 
1 7 -14 0 
9 -2 14 0 
1 -12 12 0 
6 1 -4 0 
10 13 -13 0 
13 5 -2 0 
14 5 -8 0 
13 -10 11 0 
14 14 -4 0 
4 11 -3 0 
5 12 -5 0 
3 5 -7 0 
13 -6 9 0 
8 -12 6 0 
10 -11 14 0 
7 14 -6 0 
11 -9 13 0 
7 -4 2 0 
14 1 -13 0 
6 -11 11 0 
4 -14 2 0 
2 -3 4 0 
3 -9 5 0 
13 3 -5 0 
11 13 -2 0 
2 -8 10 0 
2 -6 10 0 
1 6 -12 0 
9 -4 7 0 
12 3 -10 0 
13 3 -11 0 
6 14 -10 0 
10 -6 1 0 
9 -9 5 0 
14 5 -11 0 
12 -7 1 0 
